c testing file: newTests//100.410.1010795163.cnf
s SATISFIABLE
v -1 2 -3 4 -5 6 7 8 9 10 12 -13 -14 -16 18 -19 -20 -21 -22 -23 24 25 -26 27 28 -29 -30 31 32 33 -34 35 -37 -38 39 -41 42 43 -44 45 -46 -47 -48 49 -50 51 52 -53 -55 -56 -57 58 -59 -60 61 62 -63 -64 65 -66 -67 -68 -69 -70 71 72 -73 74 75 -76 -77 78 79 80 81 -82 -83 -84 85 86 87 88 89 -91 -92 -93 -94 -95 96 -97 -98 99 100

real	0m13.267s
user	0m9.012s
sys	0m0.024s

c testing file: newTests//100.420.1182894637.cnf
s SATISFIABLE
v 1 2 -3 4 -5 -6 -7 -8 -9 -10 11 12 13 -14 -15 16 17 18 -19 20 21 -22 23 -24 -25 26 27 28 29 -30 31 32 33 -34 -35 -36 37 -38 39 -40 41 -42 43 44 -45 -46 47 48 -49 -50 -51 -52 53 -54 -55 56 -57 -58 59 60 61 62 63 65 66 67 68 69 70 71 -72 -73 -75 -76 -78 -79 -80 -81 -82 -83 -84 85 -86 -87 -88 89 -90 91 -92 93 -94 -95 -97 -98 99 -100

real	2m45.084s
user	1m51.960s
sys	0m0.080s

c testing file: newTests//100.430.11841216.cnf
UNSATISFIABLE

real	7m22.955s
user	4m47.552s
sys	0m0.208s

c testing file: newTests//100.440.740896193.cnf
s SATISFIABLE
v -1 2 -4 -5 -6 -7 8 9 11 12 -13 -14 15 -16 -17 -19 20 21 22 -23 24 -26 27 28 29 -30 -31 32 -33 34 -35 -36 -37 38 -39 40 -41 -42 -43 -44 45 46 -47 48 -49 50 51 -52 -53 54 -55 -56 -57 -58 -59 60 61 -62 -63 64 -65 -66 67 68 -69 70 72 73 -74 75 -76 77 -78 79 80 81 -82 83 84 85 -86 -87 -88 -89 -90 91 92 93 -94 95 96 97 -98 99 100

real	2m44.803s
user	1m50.316s
sys	0m0.088s

c testing file: newTests//100.450.919378425.cnf
UNSATISFIABLE

real	5m15.714s
user	3m30.260s
sys	0m0.108s

c testing file: newTests//100.460.152995728.cnf
UNSATISFIABLE

real	4m9.316s
user	2m43.736s
sys	0m0.076s

